c File: instances/18_0.45_3.col
c
c Description: Random graph of size 18 vertices and P(0.44999999999999996) of edges between any two vertices.
p col 18 153
e 1 2
e 1 6
e 1 9
e 1 12
e 2 3
e 2 4
e 2 5
e 2 11
e 2 14
e 2 15
e 2 16
e 3 5
e 3 11
e 3 12
e 3 18
e 4 5
e 4 6
e 4 8
e 4 12
e 4 14
e 4 15
e 4 17
e 5 8
e 5 11
e 5 14
e 5 15
e 5 17
e 5 18
e 6 8
e 6 9
e 6 12
e 6 13
e 6 14
e 6 17
e 6 18
e 7 9
e 7 11
e 7 12
e 7 14
e 8 10
e 8 13
e 8 15
e 8 16
e 8 17
e 8 18
e 9 13
e 9 17
e 10 12
e 10 13
e 10 14
e 10 16
e 11 14
e 11 15
e 11 16
e 11 18
e 12 14
e 12 16
e 12 17
e 12 18
e 13 14
e 13 15
e 13 16
e 13 17
e 14 16
e 14 18
e 15 17
e 15 18
e 16 17
e 17 18